tutorial/tutorial_03_gurobi setup_20250924/wyndor/instance/wyndor.lp
\ Model Wyndor
\ LP format - for model browsing. Use MPS format to capture full model detail.
Maximize
  3000 Doors + 5000 Windows
Subject To
 Plant_1: Doors <= 4
 Plant_2: 2 Windows <= 12
 Plant_3: 3 Doors + 2 Windows <= 18
Bounds
End
