tutorial/tutorial_03_gurobi setup_20250924/wyndor/instance/wyndor.mps
NAME Wyndor
OBJSENSE MAX
ROWS
 N  OBJ
 L  c0      
 L  c1      
 L  c2      
COLUMNS
    Doors     OBJ       3000
    Doors     c0        1
    Doors     c2        3
    Windows   OBJ       5000
    Windows   c1        2
    Windows   c2        2
RHS
    RHS1      c0        4
    RHS1      c1        12
    RHS1      c2        18
BOUNDS
ENDATA
